c --- [ banner ] -------------------------------------------------------------
c 
c CaDiCaL SAT Solver
c Copyright (c) 2016-2023 A. Biere, M. Fleury, N. Froleyks, K. Fazekas, F. Pollitt
c 
c Version 1.9.5
c g++ (Ubuntu 11.4.0-1ubuntu1~22.04) 11.4.0 -Wall -Wextra -O3 -DNDEBUG -static
c Thu Mar 7 06:16:21 CET 2024 Linux pc101447 6.5.0-17-generic x86_64
c 
c --- [ limit ] --------------------------------------------------------------
c 
c setting time limit to 3600 seconds real time (due to '-t 3600')
c 
c --- [ parsing input ] ------------------------------------------------------
c 
c reading DIMACS file from '/home/oliveras/SAT-comp-2023//00f4aca773e5675f35263dcd46b15bde-vmpc_28.shuffled-as.sat05-1957.cnf'
c opening file to read '/home/oliveras/SAT-comp-2023//00f4aca773e5675f35263dcd46b15bde-vmpc_28.shuffled-as.sat05-1957.cnf'
c found 'p cnf 784 108080' header
c parsed 108080 clauses in 0.05 seconds process time
c 
c --- [ options ] ------------------------------------------------------------
c 
c   --seed=1                       (different from default '0')
c 
c --- [ solving ] ------------------------------------------------------------
c 
c time measured in process time since initialization
c 
c  seconds  reductions  redundant  irredundant
c         MB    restarts       trail      variables
c          level   conflicts       glue       remaining
c 
c *  0.05 10  0 0   0    0    0  0% 0 108080 784 100%
c {  0.06 13  0 0   0    0    0  0% 0 108080 784 100%
c -  0.09 14 18 1   2  301  193 87% 10 108080 784 100%
c -  0.14 19 16 2  19  922  503 87% 9 108080 784 100%
c }  0.14 19 15 2  21 1000  549 87% 9 108080 784 100%
c [  0.14 19  0 2  21 1000  549  0% 0 108080 784 100%
c O  0.15 19 37 2  21 1011  556 88% 13 108080 784 100%
c -  0.21 19 35 3  21 1854 1016 86% 19 108080 784 100%
c ]  0.28 19 46 3  22 3003 1993 85% 24 108080 784 100%
c {  0.28 19 15 3  22 3003 1993 87% 9 108080 784 100%
c F  0.28 19 16 3  23 3014 2004 87% 10 108080 784 100%
c -  0.30 19 16 4  27 3094 1474 87% 9 108080 784 100%
c -  0.38 19 16 5  96 4644 1662 86% 9 108080 784 100%
c 2  0.41 19 16 5  99 5001 1902 86% 9 86912 784 100%
c p  0.43 19 16 5  99 5001 1972 86% 9 86912 783 100%
c #  0.47 19 16 5 130 6017 2662 86% 9 86912 783 100%
c -  0.50 17 15 6 132 6504 2048 86% 9 86693 783 100%
c }  0.52 17 15 6 144 7003 2390 86% 9 86693 783 100%
c [  0.52 17 46 6 144 7003 2390 85% 24 86693 783 100%
c -  0.60 20 47 7 145 8604 2786 85% 24 86693 783 100%
c 
c  seconds  reductions   redundant   irredundant
c         MB    restarts        trail      variables
c          level    conflicts       glue       remaining
c 
c I  0.67 20 46 7 146 10019 3901 85% 24 86693 783 100%
c -  0.73 24 44 8 147 11007 3353 85% 23 86693 783 100%
c -  0.87 24 52 9 149 13707 3737 85% 25 86693 783 100%
c s  0.93 24 54 9 149 14220 4178 85% 26 84545 783 100%
c v  0.97 24 54 9 149 14220 4178 85% 26 83982 783 100%
c w  0.98 24 54 9 149 14220 4178 85% 26 83982 783 100%
c t  1.00 24 54 9 149 14220 4178 85% 26 80621 783 100%
c s  1.03 24 54 9 149 14220 4178 85% 26 79621 783 100%
c ]  1.10 24 55 9 149 15003 4860 85% 27 79621 783 100%
c {  1.10 24 15 9 149 15003 4860 86% 9 79621 783 100%
c 2  1.11 24 15 9 150 15003 4857 86% 9 79365 783 100%
c p  1.12 24 15 9 150 15003 4891 86% 9 79365 783 100%
c B  1.13 24 15 9 153 15020 4906 86% 9 79365 783 100%
c -  1.21 24 15 10 240 16707 4142 87% 9 79365 783 100%
c -  1.35 17 15 11 377 20011 4156 87% 9 79365 783 100%
c W  1.44 17 15 11 392 21021 4828 87% 9 79365 783 100%
c -  1.56 20 15 12 468 23616 4831 86% 9 79365 783 100%
c -  1.73 20 15 13 605 27516 5467 86% 9 79365 783 100%
c F  1.76 20 15 13 626 28023 5761 86% 9 79365 783 100%
c p  1.87 20 15 13 714 30004 6999 86% 9 79365 783 100%
c 
c  seconds  reductions    redundant  irredundant
c         MB     restarts        trail     variables
c          level     conflicts       glue      remaining
c 
c }  1.91 20 15 13 781 31003 7575 86% 9 79365 783 100%
c [  1.91 20 55 13 781 31003 7575 85% 27 79365 783 100%
c -  1.95 20 54 14 781 31716 6002 85% 27 79365 783 100%
c B  2.20 20 47 14 784 36029 9392 85% 24 79365 783 100%
c -  2.22 23 48 15 784 36216 7226 85% 24 79365 783 100%
c s  2.55 23 69 15 787 40892 11358 84% 33 77926 783 100%
c v  2.59 23 69 15 787 40892 11358 84% 33 77520 783 100%
c w  2.60 23 69 15 787 40892 11358 84% 33 77520 783 100%
c t  2.62 23 69 15 787 40892 11357 84% 33 74590 783 100%
c s  2.65 23 69 15 787 40892 11284 84% 33 74588 783 100%
c -  2.67 23 69 16 787 41016 7835 84% 33 74588 783 100%
c W  2.98 23 63 16 788 45030 11048 84% 31 74588 783 100%
c -  3.06 23 61 17 788 46123 7655 84% 30 74588 783 100%
c 2  3.29 23 58 17 789 50007 10798 84% 29 74587 783 100%
c p  3.30 23 58 17 789 50007 10833 84% 29 74587 783 100%
c -  3.41 23 56 18 789 51526 8260 84% 29 74587 783 100%
c O  3.60 23 56 18 790 55032 11194 84% 28 74587 783 100%
c -  3.73 23 54 19 792 57227 9087 84% 27 74587 783 100%
c ]  4.07 23 53 19 795 63003 13881 85% 27 74587 783 100%
c {  4.07 23 15 19 795 63003 13881 86% 9 74587 783 100%
c 
c  seconds  reductions    redundant  irredundant
c         MB     restarts        trail     variables
c          level     conflicts       glue      remaining
c 
c -  4.09 23 15 20 808 63228 9640 86% 9 74587 783 100%
c B  4.24 23 15 20 909 66033 11358 86% 9 74587 783 100%
c -  4.41 23 15 21 1092 69529 9077 86% 9 74587 783 100%
c p  4.69 23 15 21 1430 75011 12481 86% 9 74587 783 100%
c -  4.75 23 15 22 1486 76132 10130 86% 9 74587 783 100%
c W  4.91 23 15 22 1576 78034 11326 86% 9 74587 783 100%
c s  5.08 23 15 22 1708 80341 12241 86% 9 74584 783 100%
c v  5.13 23 15 22 1708 80341 12241 86% 9 74056 783 100%
c w  5.14 23 15 22 1708 80341 12240 86% 9 74056 783 100%
c t  5.14 23 15 22 1708 80341 12239 86% 9 74054 783 100%
c s  5.16 23 15 22 1708 80341 12238 86% 9 74054 783 100%
c ^  5.17 23 15 22 1708 80341 12238 86% 9 74054 783 100%
c -  5.30 23 15 23 1834 83035 10687 86% 9 74054 783 100%
c -  5.65 23 15 24 2211 90236 11438 86% 9 74054 783 100%
c #  5.69 23 15 24 2252 91037 11952 86% 9 74054 783 100%
c -  6.02 23 15 25 2588 97741 12411 86% 9 74054 783 100%
c 2  6.38 23 15 25 2870 105011 16936 86% 9 74054 783 100%
c p  6.39 23 15 25 2870 105011 16968 86% 9 74054 783 100%
c B  6.40 23 15 25 2872 105038 16981 86% 9 74054 783 100%
c -  6.43 23 15 26 2907 105541 13081 86% 9 74054 783 100%
c 
c  seconds  reductions       redundant  irredundant
c         MB     restarts           trail     variables
c          level      conflicts         glue      remaining
c 
c -  6.83 23 15 27 3268 113643 13702 86% 9 74054 783 100%
c W  7.23 23 15 27 3699 120041 17806 86% 9 74054 783 100%
c -  7.34 23 15 28 3756 122043 14772 86% 9 74054 783 100%
c }  7.60 23 15 28 3875 127006 17967 86% 8 74054 783 100%
c [  7.60 23 53 28 3875 127006 17967 85% 27 74054 783 100%
c -  7.84 17 55 29 3876 130743 16302 85% 28 74054 783 100%
c s  8.07 20 57 29 3878 132851 17226 84% 29 74054 783 100%
c v  8.13 20 57 29 3878 132851 17226 84% 29 73440 783 100%
c w  8.14 20 57 29 3878 132851 17225 84% 29 73440 783 100%
c s  8.18 20 57 29 3878 132851 17224 84% 29 73440 783 100%
c ^  8.19 20 57 29 3878 132851 17224 84% 29 73440 783 100%
c B  8.42 20 59 29 3880 136042 19925 84% 30 73440 783 100%
c -  8.71 21 58 30 3883 139748 17652 84% 29 73440 783 100%
c p  8.76 21 58 30 3883 140012 17931 84% 29 73440 783 100%
c -  9.45 21 59 31 3884 149053 18230 84% 30 73440 783 100%
c W  9.85 21 59 31 3885 153044 21548 84% 30 73440 783 100%
c - 10.25 21 66 32 3885 158653 18973 84% 33 73440 783 100%
c - 11.02 22 72 33 3885 168555 19963 84% 36 73440 783 100%
c I 11.23 22 73 33 3887 171047 22147 84% 36 73440 783 100%
c - 11.72 17 70 34 3892 178757 20039 84% 35 73440 783 100%
c 
c  seconds  reductions       redundant   irredundant
c         MB     restarts           trail      variables
c          level      conflicts         glue       remaining
c 
c p 11.84 17 71 34 3892 180015 21216 84% 35 73440 783 100%
c - 12.57 23 75 35 3898 189257 20845 84% 37 73440 783 100%
c B 12.63 23 76 35 3898 190050 21533 84% 38 73440 783 100%
c s 13.20 23 73 35 3900 198369 28473 84% 36 73440 783 100%
c v 13.25 23 73 35 3900 198369 28473 84% 36 72842 783 100%
c s 13.28 23 73 35 3900 198369 28473 84% 36 72842 783 100%
c - 13.43 23 72 36 3900 200057 20774 84% 36 72842 783 100%
c W 14.33 23 68 36 3906 210052 28713 84% 34 72842 783 100%
c - 14.42 23 67 37 3907 211157 21291 84% 34 72842 783 100%
c - 15.21 27 67 38 3913 222562 22733 84% 34 72842 783 100%
c p 15.43 27 68 38 3914 225016 24931 84% 34 72842 783 100%
c O 15.90 27 69 38 3915 231054 29962 84% 35 72842 783 100%
c - 16.11 27 68 39 3915 234262 23426 84% 35 72842 783 100%
c - 17.00 27 69 40 3916 246264 23834 84% 35 72842 783 100%
c B 17.51 27 71 40 3916 253057 29779 84% 35 72842 783 100%
c ] 17.66 27 71 40 3917 255006 31517 84% 35 72842 783 100%
c { 17.66 27 15 40 3917 255006 31517 86% 8 72842 783 100%
c - 17.88 27 15 41 4170 258567 24084 86% 9 72842 783 100%
c - 18.58 27 14 42 4804 271167 22539 86% 9 72842 783 100%
c p 18.79 27 14 42 5003 275017 25048 86% 9 72842 783 100%
c 
c  seconds  reductions       redundant  irredundant
c         MB     restarts           trail     variables
c          level      conflicts         glue      remaining
c 
c F 18.85 27 14 42 5054 276062 25661 86% 9 72842 783 100%
c s 18.99 27 14 42 5097 276845 25477 86% 9 72840 783 100%
c v 19.05 27 14 42 5097 276845 25477 86% 9 72088 783 100%
c w 19.07 27 14 42 5097 276845 25476 86% 9 72088 783 100%
c t 19.07 27 14 42 5097 276845 25473 86% 9 72088 783 100%
c s 19.16 27 14 42 5097 276845 25447 86% 9 72088 783 100%
c - 19.57 27 14 43 5414 284073 23992 86% 9 72088 783 100%
c - 20.30 27 14 44 6069 297274 25396 86% 9 72088 783 100%
c B 20.45 27 14 44 6188 300063 27137 86% 9 72088 783 100%
c - 21.03 27 14 45 6785 310774 26787 86% 9 72088 783 100%
c - 21.80 27 14 46 7549 324577 27867 86% 9 72088 783 100%
c W 22.09 27 14 46 7594 325064 28173 86% 9 72088 783 100%
c 2 22.38 27 14 46 7845 330023 31164 86% 9 72088 783 100%
c p 22.40 27 14 46 7845 330023 31191 86% 9 72088 783 100%
c - 22.90 27 15 47 8331 338678 28863 86% 9 72088 783 100%
c # 23.62 27 14 47 8861 351077 36552 86% 9 72088 783 100%
c - 23.74 27 14 48 8965 353082 29876 86% 9 72088 783 100%
c - 24.60 27 14 49 9845 367784 30808 86% 9 72088 783 100%
c s 24.75 27 14 49 9895 368190 29449 86% 9 72086 783 100%
c v 24.81 27 14 49 9895 368190 29449 86% 9 71202 783 100%
c 
c  seconds  reductions       redundant  irredundant
c         MB     restarts           trail     variables
c          level      conflicts         glue      remaining
c 
c w 24.83 27 14 49 9895 368190 29447 86% 9 71202 783 100%
c t 24.83 27 14 49 9895 368190 29443 86% 9 71202 783 100%
c s 24.94 27 14 49 9895 368190 29428 86% 9 71201 783 100%
c B 25.56 27 15 49 10503 378079 35387 86% 9 71201 783 100%
c - 25.86 27 15 50 10735 382789 31188 86% 9 71201 783 100%
c 2 26.32 27 14 50 11015 390025 35615 86% 9 71201 783 100%
c p 26.34 27 14 50 11015 390025 35644 86% 9 71201 783 100%
c - 26.84 27 14 51 11348 398090 32597 86% 9 71201 783 100%
c W 27.64 27 14 51 11684 406087 37390 86% 9 71201 783 100%
c - 28.11 27 14 52 12057 413690 33601 86% 9 71201 783 100%
c - 29.10 27 14 53 13000 429590 35044 86% 9 71201 783 100%
c F 29.44 27 14 53 13363 435088 38374 86% 9 71201 783 100%
c - 30.13 27 15 54 13940 445791 36182 86% 9 71201 783 100%
c p 30.75 27 15 54 14445 455026 41833 86% 9 71201 783 100%
c - 31.25 27 15 55 14839 462295 37053 86% 9 71201 783 100%
c B 31.44 27 15 55 15007 465089 38777 86% 9 71201 783 100%
c s 32.02 27 15 55 15404 472303 41088 86% 9 71201 783 100%
c v 32.09 27 15 55 15404 472303 41088 86% 9 70385 783 100%
c t 32.12 27 15 55 15404 472303 41084 86% 9 70385 783 100%
c s 32.25 27 15 55 15404 472303 41075 86% 9 70385 783 100%
c 
c  seconds  reductions        redundant  irredundant
c         MB      restarts           trail     variables
c          level       conflicts         glue      remaining
c 
c - 32.74 27 15 56 15698 479098 37299 86% 9 70385 783 100%
c W 34.26 27 14 56 16498 496090 47434 86% 9 70385 783 100%
c - 34.27 27 14 57 16513 496198 38910 86% 9 70385 783 100%
c } 35.30 27 15 57 17329 511008 47693 86% 9 70385 783 100%
c [ 35.30 27 71 57 17329 511008 47693 84% 35 70385 783 100%
c - 35.51 27 70 58 17329 513599 40788 84% 35 70385 783 100%
c p 36.48 27 67 58 17329 525026 49991 84% 34 70385 783 100%
c W 37.18 27 68 58 17329 528096 52636 84% 34 70385 783 100%
c - 37.46 20 67 59 17329 531301 44933 84% 34 70385 783 100%
c - 39.25 22 64 60 17335 549301 45195 84% 32 70385 783 100%
c I 40.39 22 60 60 17341 561097 54493 84% 31 70385 783 100%
c - 40.94 22 59 61 17343 567605 46113 84% 30 70385 783 100%
c - 42.70 33 70 62 17351 586205 48143 84% 35 70385 783 100%
c B 43.71 33 73 62 17356 595098 55711 84% 37 70385 783 100%
c p 44.20 33 76 62 17358 600027 60121 84% 38 70385 783 100%
c s 44.36 33 76 62 17358 600027 59102 84% 38 70385 783 100%
c v 44.44 33 76 62 17358 600027 59102 84% 38 69199 783 100%
c w 44.48 33 76 62 17358 600027 59100 84% 38 69199 783 100%
c t 44.49 33 76 62 17358 600027 59099 84% 38 69199 783 100%
c s 44.65 33 76 62 17358 600027 59065 84% 38 69199 783 100%
c 
c  seconds  reductions        redundant   irredundant
c         MB      restarts           trail      variables
c          level       conflicts         glue       remaining
c 
c ^ 44.66 33 76 62 17358 600027 59065 84% 38 69199 783 100%
c - 45.18 33 77 63 17359 605106 48397 84% 38 69199 783 100%
c - 47.26 31 78 64 17360 624310 48440 84% 40 69199 783 100%
c W 48.34 31 78 64 17363 630103 53339 84% 39 69199 783 100%
c - 49.90 39 75 65 17370 643816 48577 84% 38 69199 783 100%
c - 52.01 39 69 66 17378 663618 50048 85% 36 69199 783 100%
c O 52.26 39 68 66 17380 666111 52061 85% 35 69199 783 100%
c 2 53.75 39 64 66 17388 680027 63263 85% 34 69199 782 100%
c p 53.79 39 64 66 17388 680027 63288 85% 34 69199 782 100%
c - 54.25 39 63 67 17389 683719 43974 85% 33 69103 782 100%
c i 54.98 39 60 67 17390 691023 49590 85% 32 69103 781 100%
c B 56.15 39 62 67 17391 703117 60017 85% 32 69103 781 100%
c - 56.24 39 62 68 17391 704121 40273 85% 32 68912 781 100%
c - 58.23 39 62 69 17392 724821 48574 85% 33 68912 781 100%
c s 58.84 39 64 69 17392 729339 52128 85% 33 68895 781 100%
c v 58.92 39 64 69 17392 729339 52128 85% 33 67948 781 100%
c w 58.96 39 64 69 17392 729339 52115 85% 33 67948 781 100%
c t 58.97 39 64 69 17392 729339 52096 85% 33 67945 781 100%
c s 59.26 39 64 69 17392 729339 51962 85% 33 67944 781 100%
c W 60.99 39 66 69 17392 741120 62112 85% 35 67944 781 100%
c 
c  seconds  reductions        redundant   irredundant
c         MB      restarts           trail      variables
c          level       conflicts         glue       remaining
c 
c - 61.57 46 66 70 17393 745825 51337 85% 35 67944 781 100%
c 2 64.08 46 67 70 17393 765027 67410 85% 36 67944 781 100%
c p 64.14 46 67 70 17393 765027 67440 85% 36 67944 781 100%
c - 64.50 46 67 71 17393 767128 53758 85% 36 67944 781 100%
c ] 65.65 46 66 71 17393 776409 61275 85% 36 67944 781 100%
c 1 65.65 46 66 71 17393 776409 61275 85% 36 67944 781 100%
c 
c --- [ result ] -------------------------------------------------------------
c 
s SATISFIABLE
v -1 -2 -3 4 5 6 7 8 9 -10 11 -12 -13 -14 15 16 17 18 -19 20 -21 22 -23 -24 25
v 26 -27 -28 -29 -30 31 -32 33 34 -35 36 -37 -38 39 40 41 -42 43 -44 45 46 47
v 48 49 50 -51 52 -53 54 -55 -56 -57 58 -59 -60 61 62 63 64 65 -66 67 68 -69
v 70 71 -72 73 -74 -75 76 77 -78 79 -80 81 82 83 -84 85 86 -87 -88 -89 -90 -91
v 92 93 -94 95 -96 97 98 99 100 101 -102 103 104 105 -106 107 -108 -109 -110
v -111 112 -113 114 115 116 -117 -118 119 120 -121 122 -123 -124 125 -126 127
v -128 -129 -130 -131 -132 133 134 -135 136 137 138 139 140 141 142 -143 -144
v 145 146 -147 148 -149 150 -151 -152 153 -154 -155 -156 157 -158 159 160 -161
v -162 -163 -164 -165 -166 -167 168 169 -170 171 172 173 -174 175 -176 177 178
v 179 180 181 182 183 184 -185 186 187 188 -189 -190 191 -192 -193 194 -195
v 196 197 198 199 200 201 202 203 -204 205 -206 207 208 -209 210 211 -212 213
v 214 215 216 217 218 -219 -220 -221 222 223 224 -225 226 -227 228 229 230
v -231 232 -233 234 235 236 -237 -238 -239 240 -241 -242 -243 -244 245 -246
v -247 -248 -249 -250 251 -252 253 -254 -255 256 257 -258 259 -260 261 262
v -263 -264 265 -266 -267 -268 269 270 271 -272 -273 -274 275 -276 277 -278
v 279 280 281 -282 -283 284 -285 -286 287 288 -289 -290 -291 292 293 -294 295
v 296 297 298 299 300 301 -302 303 304 -305 -306 307 308 -309 -310 311 -312
v -313 -314 315 -316 317 -318 -319 320 -321 -322 -323 324 -325 -326 -327 -328
v -329 330 -331 332 -333 -334 -335 -336 337 -338 -339 -340 -341 -342 -343 344
v -345 346 347 348 349 350 351 352 -353 354 -355 -356 357 358 -359 -360 -361
v 362 -363 -364 -365 366 -367 368 -369 -370 371 372 -373 374 -375 -376 -377
v 378 379 -380 -381 -382 -383 384 -385 386 -387 -388 389 390 -391 -392 -393
v -394 395 396 -397 398 399 400 401 402 -403 -404 405 -406 407 408 409 410
v -411 412 -413 -414 415 416 -417 -418 -419 420 421 422 -423 424 425 426 -427
v -428 -429 430 -431 -432 433 -434 -435 -436 -437 -438 -439 -440 -441 442 -443
v 444 -445 -446 447 -448 -449 450 451 452 -453 -454 455 -456 -457 -458 459 460
v -461 -462 -463 -464 465 466 -467 -468 469 470 -471 -472 -473 -474 -475 476
v -477 -478 -479 480 -481 482 -483 484 485 486 487 -488 489 490 491 492 -493
v -494 495 -496 497 498 -499 500 -501 -502 503 504 505 506 -507 -508 -509 -510
v -511 -512 -513 -514 -515 -516 517 -518 -519 -520 521 -522 523 524 525 526
v -527 -528 529 -530 -531 532 533 -534 -535 -536 537 538 -539 540 -541 542 543
v -544 545 -546 547 548 549 550 -551 552 553 -554 555 -556 -557 558 559 -560
v -561 562 -563 564 -565 -566 567 568 569 -570 571 -572 573 574 575 576 577
v -578 -579 -580 581 582 -583 -584 585 586 587 588 589 590 591 -592 -593 -594
v 595 596 597 -598 599 600 -601 602 -603 -604 -605 606 -607 608 609 610 611
v 612 -613 -614 615 -616 617 -618 -619 -620 -621 -622 623 624 -625 -626 627
v -628 629 -630 -631 632 633 634 -635 636 -637 -638 -639 -640 641 642 643 644
v -645 -646 -647 -648 -649 -650 651 -652 653 -654 -655 -656 657 -658 -659 -660
v 661 -662 -663 -664 -665 666 667 668 669 670 -671 672 673 674 675 676 677 678
v -679 680 681 -682 -683 -684 -685 -686 687 -688 -689 -690 -691 692 693 694
v -695 696 697 -698 -699 700 -701 -702 703 -704 -705 706 707 -708 709 -710 711
v 712 -713 714 715 -716 717 718 -719 -720 721 -722 723 724 725 726 727 -728
v -729 -730 731 -732 733 -734 -735 736 737 738 -739 740 741 -742 -743 -744 745
v 746 -747 -748 -749 750 -751 -752 753 -754 -755 -756 -757 758 -759 -760 -761
v 762 763 764 -765 766 -767 -768 769 -770 771 -772 -773 774 -775 -776 777 778
v 779 -780 781 -782 -783 -784 0
c 
c --- [ run-time profiling ] -------------------------------------------------
c 
c process time taken by individual solving procedures
c (percentage relative to process time for solving)
c 
c        62.11   94.68% search
c        39.42   60.10% stable
c        19.73   30.08% unstable
c         3.49    5.32% simplify
c         2.95    4.50% walk
c         1.85    2.82% subsume
c         0.75    1.14% vivify
c         0.43    0.65% probe
c         0.18    0.27% ternary
c         0.11    0.16% elim
c         0.05    0.08% parse
c         0.01    0.01% lucky
c   =================================
c        65.60   99.92% solve
c 
c last line shows process time for solving
c (percentage relative to total process time)
c 
c --- [ statistics ] ---------------------------------------------------------
c 
c chronological:            265710        34.22 %  of conflicts
c conflicts:                776409     11835.42    per second
c decisions:               1428536     21776.30    per second
c fixed:                         3         0.38 %  of all variables
c learned:                  753945        97.11 %  per conflict
c learned_lits:           48859421       100.00 %  learned literals
c minimized:                     0         0.00 %  learned literals
c shrunken:               15856119        32.45 %  learned literals
c minishrunken:            7947092        16.27 %  learned literals
c otfs:                       3105         0.40 %  of conflict
c propagations:          103342812         1.58 M  per second
c reduced:                  467546        60.22 %  per conflict
c rephased:                     38     20431.82    interval
c restarts:                  17393        44.64    interval
c stabilizing:                   5        56.08 %  of conflicts
c subsumed:                 224318        25.91 %  of all clauses
c strengthened:              27154         3.14 %  of all clauses
c ternary:                     586         0.18 %  of resolved
c trail reuses:                  0         0.00 %  of incremental calls
c vivified:                   7357         0.85 %  of all clauses
c walked:                       12     64700.75    interval
c 
c seconds are measured in process time for solving
c 
c --- [ resources ] ----------------------------------------------------------
c 
c total process time since initialization:        65.65    seconds
c total real time since initialization:           65.65    seconds
c maximum resident set size of process:           45.68    MB
c 
c --- [ shutting down ] ------------------------------------------------------
c 
c exit 10
